p wcnf 118 236 237 
1 -60 13 0 
1 -27 32 0 
1 -47 95 0 
1 51 19 0 
1 -104 108 0 
1 -58 -14 0 
1 -13 48 0 
1 56 -27 0 
1 113 -16 0 
1 -90 -6 0 
1 77 -83 0 
1 -10 48 0 
1 61 -30 0 
1 -46 65 0 
1 83 21 0 
1 26 -3 0 
1 20 117 0 
1 -75 -23 0 
1 -34 9 0 
1 -79 -98 0 
1 -29 -107 0 
1 72 -19 0 
1 -53 116 0 
1 32 47 0 
1 -106 -77 0 
1 54 91 0 
1 -109 67 0 
1 118 95 0 
1 72 116 0 
1 110 -69 0 
1 -89 95 0 
1 -117 48 0 
1 51 47 0 
1 22 77 0 
1 -46 58 0 
1 17 -91 0 
1 -19 95 0 
1 -81 86 0 
1 105 3 0 
1 74 -110 0 
1 -33 -80 0 
1 90 -112 0 
1 102 -50 0 
1 108 -101 0 
1 -106 -38 0 
1 17 -57 0 
1 -90 89 0 
1 70 -13 0 
1 91 -78 0 
1 28 24 0 
1 -21 -31 0 
1 -96 -114 0 
1 85 4 0 
1 -37 -10 0 
1 -44 -113 0 
1 -117 -106 0 
1 -76 -113 0 
1 80 31 0 
1 -71 6 0 
1 11 -53 0 
1 67 -93 0 
1 -2 21 0 
1 -35 -110 0 
1 92 1 0 
1 16 82 0 
1 -58 -96 0 
1 -38 72 0 
1 76 111 0 
1 107 104 0 
1 -37 52 0 
1 -46 3 0 
1 112 62 0 
1 -112 -45 0 
1 64 -25 0 
1 58 -80 0 
1 -51 43 0 
1 -65 86 0 
1 -22 -91 0 
1 -83 116 0 
1 81 -72 0 
1 -83 -110 0 
1 110 24 0 
1 35 -46 0 
1 -33 -52 0 
1 -51 83 0 
1 -98 108 0 
1 96 -115 0 
1 105 -13 0 
1 -43 -117 0 
1 -55 -97 0 
1 42 26 0 
1 -38 -105 0 
1 97 -15 0 
1 -31 81 0 
1 76 -3 0 
1 -81 -110 0 
1 7 -82 0 
1 -64 -88 0 
1 -3 -12 0 
1 24 99 0 
1 -34 -78 0 
1 -20 -114 0 
1 -94 -28 0 
1 9 102 0 
1 85 -118 0 
1 59 13 0 
1 105 -102 0 
1 105 -15 0 
1 -41 -13 0 
1 -60 25 0 
1 -69 8 0 
1 -83 -25 0 
1 -47 -27 0 
1 -102 73 0 
1 45 35 0 
1 109 49 0 
1 -30 -27 0 
1 -78 -40 0 
1 92 -60 0 
1 -2 88 0 
1 42 108 0 
1 -100 105 0 
1 30 85 0 
1 31 -99 0 
1 -96 4 0 
1 104 54 0 
1 68 -83 0 
1 54 41 0 
1 58 108 0 
1 -108 62 0 
1 44 -68 0 
1 24 82 0 
1 19 117 0 
1 -68 -19 0 
1 -54 -17 0 
1 54 -79 0 
1 -116 72 0 
1 -61 -79 0 
1 -47 -33 0 
1 -97 2 0 
1 58 -94 0 
1 26 68 0 
1 112 -85 0 
1 -21 83 0 
1 11 24 0 
1 8 4 0 
1 116 72 0 
1 -76 -81 0 
1 -1 76 0 
1 -75 -11 0 
1 -56 -97 0 
1 10 -22 0 
1 -117 -38 0 
1 -114 -68 0 
1 -21 65 0 
1 -19 -118 0 
1 -79 44 0 
1 -38 61 0 
1 14 61 0 
1 112 -5 0 
1 46 116 0 
1 -42 -46 0 
1 -99 18 0 
1 -111 -16 0 
1 68 111 0 
1 -75 49 0 
1 117 85 0 
1 -50 58 0 
1 66 -50 0 
1 -89 -100 0 
1 111 -20 0 
1 85 -57 0 
1 -13 6 0 
1 38 74 0 
1 2 -32 0 
1 109 -48 0 
1 -69 8 0 
1 -112 91 0 
1 -19 60 0 
1 26 -55 0 
1 8 11 0 
1 -24 7 0 
1 52 -19 0 
1 87 -53 0 
1 -41 10 0 
1 117 32 0 
1 109 -16 0 
1 -40 99 0 
1 98 110 0 
1 -74 -30 0 
1 -98 88 0 
1 1 -69 0 
1 -24 110 0 
1 110 12 0 
1 107 -21 0 
1 -43 -26 0 
1 -45 -62 0 
1 -23 -39 0 
1 -42 -63 0 
1 88 -40 0 
1 -63 -76 0 
1 -91 -50 0 
1 -22 94 0 
1 115 -110 0 
1 5 -75 0 
1 113 85 0 
1 -9 63 0 
1 80 -31 0 
1 -10 -64 0 
1 -32 -67 0 
1 -57 -6 0 
1 -81 -26 0 
1 -22 15 0 
1 33 -7 0 
1 41 66 0 
1 -5 104 0 
1 35 -31 0 
1 -112 42 0 
1 -104 68 0 
1 -90 69 0 
1 48 -78 0 
1 37 -10 0 
1 3 -29 0 
1 78 -99 0 
1 73 -70 0 
1 6 18 0 
1 -107 88 0 
1 60 -107 0 
1 -12 -18 0 
1 96 -2 0 
1 -46 -94 0 
1 1 -80 0 
1 57 -43 0 
1 20 -7 0 
1 11 -118 0 
1 53 -5 0 
